c ind 1 2 3 4 5 6 7 8 9 10 11 12 13 14 15 16 17 18 19 20 21 22 23 24 25 26 27 28 29 30 31 32 33 34 35 36 37 38 39 40 41 42 43 44 45 46 47 48 49 50 51 52 53 54 0
p cnf 432 653               
-1 10 -55 0
-10 1 -56 0
-1 57 0
-2 57 0
1 2 -57 0
-57 18 -58 0
-18 57 -59 0
-19 57 -60 0
-3 11 -61 0
-11 3 -62 0
-12 3 -63 0
-3 13 -64 0
-13 3 -65 0
-3 66 0
-4 66 0
3 4 -66 0
20 -68 0
-20 57 -67 0
67 -68 0
-66 68 -69 0
-20 66 -70 0
-22 -21 -71 0
71 -75 0
-21 72 0
-22 72 0
21 22 -72 0
-72 -23 -73 0
73 -75 0
-23 74 0
-72 74 0
23 72 -74 0
74 -75 0
-66 75 -76 0
-74 66 -77 0
-25 -24 -78 0
78 -82 0
-24 79 0
-25 79 0
-79 -26 -80 0
80 -82 0
-66 82 -83 0
-26 81 0
-79 81 0
-81 66 -84 0
19 -85 0
20 -85 0
-19 -20 85 0
-81 85 -86 0
-66 86 -87 0
-5 88 0
-7 88 0
5 7 -88 0
-27 88 -90 0
90 -92 0
-6 89 0
-8 89 0
6 8 -89 0
-28 89 -91 0
91 -92 0
92 -96 0
-28 -27 -93 0
93 -95 0
27 28 -94 0
94 -95 0
95 -96 0
96 -111 0
-29 88 -97 0
97 -99 0
-30 89 -98 0
98 -99 0
99 -103 0
-30 -29 -100 0
100 -102 0
29 30 -101 0
101 -102 0
102 -103 0
103 -111 0
-31 88 -104 0
104 -106 0
-32 89 -105 0
105 -106 0
106 -110 0
-32 -31 -107 0
107 -109 0
31 32 -108 0
108 -109 0
109 -110 0
110 -111 0
-33 66 -112 0
112 -115 0
-34 66 -113 0
113 -115 0
-35 66 -114 0
114 -115 0
-36 66 -116 0
116 -119 0
-37 66 -117 0
117 -119 0
-38 66 -118 0
118 -119 0
-39 66 -120 0
120 -123 0
-40 66 -121 0
121 -123 0
-41 66 -122 0
122 -123 0
-42 66 -124 0
124 -127 0
-43 66 -125 0
125 -127 0
-44 66 -126 0
126 -127 0
-45 66 -128 0
128 -131 0
-46 66 -129 0
129 -131 0
-47 66 -130 0
130 -131 0
-15 -14 -132 0
132 -134 0
-14 133 0
-15 133 0
14 15 -133 0
133 -134 0
-5 134 -135 0
135 -140 0
-17 -16 -136 0
136 -138 0
-16 137 0
-17 137 0
16 17 -137 0
137 -138 0
-6 138 -139 0
139 -140 0
-133 5 -141 0
141 -143 0
-137 6 -142 0
142 -143 0
-48 -49 147 0
-147 -148 0
48 -146 0
-49 -145 0
48 49 -144 0
144 -145 0
145 -146 0
146 -148 0
-66 3 -149 0
18 -150 0
20 -150 0
-18 -20 150 0
-11 150 -151 0
151 -153 0
-150 11 -152 0
152 -153 0
-12 85 -154 0
154 -156 0
-85 12 -155 0
155 -156 0
10 -157 0
20 -157 0
-10 -20 157 0
-13 157 -158 0
158 -160 0
-157 13 -159 0
159 -160 0
-14 -27 161 0
-161 165 0
-16 -28 163 0
-163 165 0
-165 -167 0
15 -162 0
27 -162 0
17 -164 0
28 -164 0
162 164 -166 0
166 -167 0
45 -170 0
10 -169 0
20 -168 0
39 -168 0
-20 -39 168 0
168 -169 0
169 -170 0
170 -178 0
14 -171 0
29 -171 0
-14 -29 171 0
-171 175 0
16 -173 0
30 -173 0
-16 -30 173 0
-173 175 0
171 173 -175 0
-175 -177 0
15 -172 0
29 -172 0
-15 -29 172 0
-172 176 0
17 -174 0
30 -174 0
-17 -30 174 0
-174 176 0
172 174 -176 0
176 -177 0
177 -178 0
178 -183 0
19 -179 0
168 -179 0
-19 -168 179 0
-179 9 -180 0
180 -182 0
-9 179 -181 0
181 -182 0
182 -183 0
183 -247 0
-37 34 -226 0
226 -228 0
-34 37 -227 0
227 -228 0
228 -235 0
157 187 0
-49 187 0
-157 49 -187 0
40 -229 0
-85 9 -188 0
188 -190 0
-9 85 -189 0
189 -190 0
190 -229 0
-187 229 -230 0
-37 230 -231 0
231 -234 0
37 -232 0
187 -232 0
-37 -187 232 0
-46 232 -233 0
46 -232 -233 0
232 -232 -233 0
233 -234 0
234 -235 0
235 -242 0
190 -240 0
187 -239 0
10 -237 0
20 -236 0
37 -236 0
-20 -37 236 0
236 -237 0
-10 -236 237 0
-157 237 -238 0
238 -239 0
239 -240 0
-40 240 -241 0
241 -242 0
242 -246 0
15 -214 0
31 -214 0
-15 -31 214 0
-214 218 0
17 -216 0
32 -216 0
-17 -32 216 0
-216 218 0
214 216 -218 0
-218 -243 0
14 -213 0
31 -213 0
-14 -31 213 0
-213 217 0
16 -215 0
32 -215 0
-16 -32 215 0
-215 217 0
213 215 -217 0
217 -243 0
218 -217 243 0
-176 -205 0
175 -205 0
176 -175 205 0
-205 244 0
-237 244 0
205 237 -244 0
-243 244 -245 0
243 -244 -245 0
244 -244 -245 0
245 -246 0
246 -247 0
247 -265 0
-38 35 -248 0
248 -250 0
-35 38 -249 0
249 -250 0
250 -257 0
41 -251 0
190 -251 0
-187 251 -252 0
-38 252 -253 0
253 -256 0
38 -254 0
187 -254 0
-38 -187 254 0
-47 254 -255 0
47 -254 -255 0
254 -254 -255 0
255 -256 0
256 -257 0
257 -264 0
190 -262 0
187 -261 0
10 -259 0
20 -258 0
38 -258 0
258 -259 0
-157 259 -260 0
260 -261 0
261 -262 0
-41 262 -263 0
263 -264 0
264 -265 0
-57 1 -266 0
-88 5 -267 0
267 -269 0
-89 6 -268 0
268 -269 0
-39 -270 0
42 -270 0
39 -42 270 0
-43 270 -271 0
271 -273 0
-270 43 -272 0
272 -273 0
273 -278 0
-40 -274 0
43 -274 0
40 -43 274 0
-44 274 -275 0
275 -277 0
-274 44 -276 0
276 -277 0
277 -278 0
-39 42 -279 0
279 -289 0
-23 -39 282 0
-282 -283 0
-22 -39 281 0
-281 -283 0
283 -288 0
26 25 284 0
-24 -284 285 0
-285 36 -286 0
-66 286 -287 0
287 -288 0
288 -289 0
289 -303 0
-26 -36 292 0
-292 -293 0
-25 -36 291 0
-291 -293 0
293 -302 0
85 -296 0
-23 -295 0
-22 -295 0
-21 -295 0
23 22 21 295 0
295 -296 0
-33 296 -297 0
297 -300 0
-34 298 0
-35 298 0
-298 -36 -299 0
299 -300 0
-66 300 -301 0
301 -302 0
302 -303 0
303 -350 0
-40 43 -304 0
304 -314 0
-23 -40 307 0
-307 -308 0
-21 -40 305 0
-305 -308 0
308 -313 0
26 24 309 0
-25 -309 310 0
-310 37 -311 0
-66 311 -312 0
312 -313 0
313 -314 0
314 -327 0
-26 -37 317 0
-317 -318 0
-24 -37 315 0
-315 -318 0
318 -326 0
85 -321 0
-23 -320 0
-22 -320 0
320 -321 0
-34 321 -322 0
322 -324 0
-37 -35 -323 0
323 -324 0
-66 324 -325 0
325 -326 0
326 -327 0
327 -350 0
-41 44 -328 0
328 -338 0
-22 -41 330 0
-330 -332 0
-21 -41 329 0
-329 -332 0
332 -337 0
25 24 333 0
-26 -333 334 0
-334 38 -335 0
-66 335 -336 0
336 -337 0
337 -338 0
338 -349 0
-25 -38 340 0
-340 -342 0
-24 -38 339 0
-339 -342 0
342 -348 0
-23 -345 0
85 -345 0
-35 345 -346 0
-66 346 -347 0
347 -348 0
348 -349 0
349 -350 0
39 40 41 -351 0
-66 351 -352 0
-36 33 -184 0
184 -353 0
226 -353 0
248 -353 0
-52 -359 0
-51 -50 -354 0
354 -358 0
-50 355 0
-51 355 0
50 51 -355 0
-355 -52 -356 0
356 -358 0
52 355 -357 0
357 -358 0
358 -359 0
359 -430 0
27 -360 0
50 -360 0
-27 -50 360 0
-360 366 0
29 -362 0
51 -362 0
-29 -51 362 0
-362 366 0
31 -364 0
52 -364 0
-31 -52 364 0
-364 366 0
360 362 364 -366 0
-366 31 -368 0
368 -370 0
28 -361 0
50 -361 0
-28 -50 361 0
-361 367 0
30 -363 0
51 -363 0
-30 -51 363 0
-363 367 0
32 -365 0
52 -365 0
-32 -52 365 0
-365 367 0
361 363 365 -367 0
-367 32 -369 0
369 -370 0
370 -374 0
-31 366 -371 0
371 -373 0
-32 367 -372 0
372 -373 0
373 -374 0
374 -413 0
33 -387 0
50 -387 0
-33 -50 387 0
-387 390 0
34 -388 0
51 -388 0
-34 -51 388 0
-388 390 0
35 -389 0
52 -389 0
-35 -52 389 0
-389 390 0
387 388 389 -390 0
-390 -391 0
66 -385 0
85 384 0
-26 -383 0
24 381 0
-51 380 0
-52 380 0
51 52 -380 0
-380 381 0
-24 380 -381 0
381 -383 0
25 382 0
-52 382 0
-25 52 -382 0
382 -383 0
26 -381 -382 383 0
-383 384 0
-85 383 -384 0
384 -385 0
-66 -384 385 0
-385 -386 0
66 -378 0
-21 -377 0
22 375 0
-50 375 0
-22 50 -375 0
375 -377 0
23 376 0
-355 376 0
-23 355 -376 0
376 -377 0
21 -375 -376 377 0
377 -378 0
-66 -377 378 0
-378 -379 0
66 -379 0
378 -66 379 0
379 -386 0
385 -379 386 0
386 -391 0
390 -386 391 0
391 -398 0
-35 -397 0
66 -395 0
85 394 0
26 394 0
-85 -26 -394 0
394 -395 0
-66 -394 395 0
-395 -396 0
66 -392 0
295 -392 0
-66 -295 392 0
-392 -393 0
66 -393 0
392 -66 393 0
393 -396 0
395 -393 396 0
396 -397 0
35 -396 397 0
397 -398 0
-53 398 -399 0
399 -403 0
53 -401 0
-53 397 -400 0
400 -401 0
-391 401 -402 0
402 -403 0
403 -407 0
53 -405 0
-53 391 -404 0
404 -405 0
-397 405 -406 0
406 -407 0
407 -412 0
-53 -66 408 0
20 -409 0
53 -409 0
-20 409 -410 0
-408 410 -411 0
411 -412 0
412 -413 0
413 -429 0
35 -414 0
390 -414 0
-54 414 -415 0
415 -419 0
54 -417 0
-54 35 -416 0
416 -417 0
-390 417 -418 0
418 -419 0
419 -423 0
54 -421 0
-54 390 -420 0
420 -421 0
-35 421 -422 0
422 -423 0
423 -428 0
-54 -66 424 0
20 -425 0
54 -425 0
-20 425 -426 0
-424 426 -427 0
427 -428 0
428 -429 0
429 -430 0
-243 -431 0
166 -165 206 0
-206 -431 0
-205 -431 0
-33 0
9 0
55 0
56 0
58 0
59 0
60 0
61 0
62 0
63 0
64 0
65 0
69 0
70 0
76 0
77 0
83 0
84 0
87 0
111 0
115 0
119 0
123 0
127 0
131 0
140 0
143 0
148 0
149 0
153 0
156 0
160 0
167 0
265 0
266 0
269 0
278 0
350 0
352 0
353 0
430 0
431 0
